1285.0 1770.0
1285.0 1809.0
1285.0 1860.0
1172.0 1812.0
1168.0 1861.0
1131.0 1810.0
1092.0 1794.0
1052.0 1772.0
1051.0 1812.0
1052.0 1861.0
1284.0 1980.0
1284.0 2015.0
1286.0 2056.0
1286.0 2096.0
1284.0 2135.0
1286.0 2173.0
1290.0 2217.0
1259.0 2076.0
1210.0 2062.0
1167.0 1939.0
1169.0 1984.0
1171.0 2022.0
1171.0 2060.0
1171.0 2098.0
1172.0 2138.0
1170.0 2176.0
1172.0 2217.0
1132.0 1991.0
1104.0 1994.0
1150.0 2291.0
1116.0 2313.0
1105.0 2274.0
1104.0 2235.0
1064.0 1938.0
1025.0 1935.0
986.0 1934.0
947.0 1934.0
1005.0 1975.0
1062.0 2089.0
1026.0 2089.0
988.0 2090.0
948.0 2089.0
1063.0 2236.0
1028.0 2236.0
992.0 2238.0
947.0 2237.0
1065.0 2272.0
1029.0 2274.0
992.0 2275.0
952.0 2279.0
